n = 28;
k = 4;
roles = [
{f, d},
{f, g},
{f, m},
{g, m},
{d, m},
{f, d},
{g, m},
{d, g},
{f, m},
{d, f},
{f, m},
{d, m},
{f, d},
{d, f},
{m, g},
{g, m},
{m, d},
{g, d},
{m, g},
{d, f},
{g, m},
{d, f},
{g, f},
{g, f},
{m, g},
{d, f},
{m, g},
{d, m}
];
num_pairs = 5;
player1 = [15, 23, 7, 14, 9];
player2 = [27, 12, 19, 20, 8];
